(set-logic ALL)
(set-option :produce-models true)
(declare-sort BoundSet 0)
(declare-sort UnboundSet 0)
(declare-fun IsLittle (BoundSet) Bool)
(declare-fun IsOutdoors (BoundSet) Bool)
(assert (not (=> (exists ((a BoundSet)) (exists ((b BoundSet)) (and (IsLittle a) (IsOutdoors b)))) (exists ((a BoundSet)) (exists ((b BoundSet)) (and (IsLittle a) (IsOutdoors b)))))))
(check-sat)
(get-model)